
n_res = 4;
rcap = [34, 34, 285, 313];
rtype = [1, 1, 2, 2];
n_tasks = 50;
modes =  [{1, 2, 3}, {4, 5, 6}, {7, 8, 9}, {10, 11, 12}, {13, 14, 15}, {16, 17, 18}, {19, 20, 21}, {22, 23, 24}, {25, 26, 27}, {28, 29, 30}, {31, 32, 33}, {34, 35, 36}, {37, 38, 39}, {40, 41, 42}, {43, 44, 45}, {46, 47, 48}, {49, 50, 51}, {52, 53, 54}, {55, 56, 57}, {58, 59, 60}, {61, 62, 63}, {64, 65, 66}, {67, 68, 69}, {70, 71, 72}, {73, 74, 75}, {76, 77, 78}, {79, 80, 81}, {82, 83, 84}, {85, 86, 87}, {88, 89, 90}, {91, 92, 93}, {94, 95, 96}, {97, 98, 99}, {100, 101, 102}, {103, 104, 105}, {106, 107, 108}, {109, 110, 111}, {112, 113, 114}, {115, 116, 117}, {118, 119, 120}, {121, 122, 123}, {124, 125, 126}, {127, 128, 129}, {130, 131, 132}, {133, 134, 135}, {136, 137, 138}, {139, 140, 141}, {142, 143, 144}, {145, 146, 147}, {148, 149, 150}];
succ =  [{16, 7, 5}, {11, 9, 8, 7}, {16, 11, 9, 6}, {16, 11, 6}, {9, 6}, {21, 15, 14, 12}, {21, 14, 12}, {21, 15, 12}, {15, 12}, {14, 12}, {22, 21, 20, 19, 17}, {27, 22, 20, 19, 18}, {24, 14}, {22, 19, 17}, {24, 17}, {27, 26, 20, 19}, {29, 27, 26, 25, 23}, {35, 31, 29, 28, 26, 24}, {30, 25, 23}, {36, 30, 28, 25}, {35, 30, 24}, {41, 36, 35, 34, 33, 31}, {41, 36, 31, 28}, {41, 36, 34, 33, 32}, {41, 35, 33, 31}, {41, 38, 36, 33, 30}, {41, 38, 33, 30}, {40, 34, 32}, {41, 40, 39, 37, 36}, {43, 40, 39, 37}, {32}, {43, 39, 37}, {49, 46, 43, 40}, {43, 42, 38}, {50, 47, 38}, {50, 48, 46, 45, 43}, {50, 48, 47, 42}, {49, 48, 46, 45, 44}, {49, 46, 42}, {48, 42}, {47, 46, 44}, {45, 44}, {47, 44}, {}, {}, {}, {}, {}, {}, {}];
n_opt = 150;
dur = [5, 8, 10, 1, 2, 5, 2, 8, 9, 2, 3, 4, 7, 9, 10, 1, 6, 10, 2, 9, 10, 5, 6, 7, 2, 6, 10, 3, 7, 9, 3, 7, 8, 3, 5, 6, 1, 8, 9, 7, 8, 9, 3, 4, 10, 3, 8, 10, 3, 5, 6, 4, 7, 10, 2, 6, 7, 2, 5, 9, 2, 3, 9, 1, 2, 6, 4, 8, 9, 1, 4, 5, 7, 9, 10, 3, 4, 10, 2, 4, 7, 3, 6, 7, 4, 7, 10, 5, 6, 8, 5, 6, 9, 1, 5, 10, 3, 8, 10, 2, 6, 10, 1, 5, 7, 5, 7, 8, 3, 8, 10, 1, 6, 8, 3, 5, 7, 2, 6, 10, 4, 5, 6, 3, 5, 10, 1, 7, 9, 2, 3, 10, 1, 9, 10, 2, 3, 5, 6, 8, 9, 7, 8, 9, 3, 4, 5, 2, 3, 4];
rreq = [|9, 8, 6, 5, 4, 1, 9, 8, 8, 10, 6, 4, 7, 6, 6, 8, 8, 8, 8, 6, 2, 5, 2, 1, 7, 4, 3, 5, 2, 2, 5, 5, 5, 8, 6, 6, 4, 3, 3, 8, 7, 7, 10, 8, 6, 7, 5, 4, 7, 3, 3, 3, 3, 2, 6, 5, 5, 7, 5, 3, 10, 8, 7, 8, 5, 3, 5, 3, 3, 10, 6, 6, 4, 3, 3, 4, 4, 3, 7, 5, 3, 7, 5, 1, 7, 7, 4, 6, 5, 2, 5, 5, 5, 7, 6, 4, 4, 4, 3, 9, 9, 9, 9, 7, 6, 2, 2, 2, 3, 2, 1, 7, 3, 2, 8, 8, 7, 5, 2, 1, 7, 7, 7, 4, 3, 3, 8, 5, 4, 3, 2, 2, 6, 6, 6, 7, 5, 4, 5, 3, 1, 5, 3, 2, 6, 5, 5, 5, 5, 5
 |1, 1, 1, 5, 4, 3, 6, 5, 4, 5, 3, 3, 4, 3, 2, 4, 4, 4, 7, 4, 3, 5, 3, 1, 5, 3, 1, 4, 2, 2, 4, 2, 2, 3, 2, 2, 7, 4, 4, 6, 5, 3, 4, 3, 3, 6, 6, 6, 5, 3, 1, 5, 2, 2, 4, 4, 4, 4, 4, 4, 6, 5, 3, 4, 4, 4, 9, 6, 5, 6, 5, 4, 5, 4, 3, 6, 4, 4, 3, 2, 2, 8, 8, 8, 9, 6, 4, 7, 7, 7, 3, 3, 3, 5, 3, 3, 4, 3, 3, 7, 6, 5, 7, 6, 5, 5, 4, 3, 4, 3, 3, 5, 3, 3, 3, 3, 3, 10, 6, 4, 9, 6, 5, 6, 6, 4, 5, 4, 3, 10, 9, 7, 10, 6, 6, 9, 7, 4, 8, 8, 8, 2, 1, 1, 6, 5, 5, 6, 4, 4
 |4, 3, 3, 6, 5, 4, 6, 6, 6, 2, 1, 1, 6, 5, 5, 10, 9, 8, 5, 5, 5, 9, 9, 9, 2, 1, 1, 5, 4, 1, 8, 5, 3, 3, 2, 2, 3, 1, 1, 5, 5, 5, 7, 4, 2, 9, 7, 3, 3, 3, 3, 7, 7, 6, 10, 9, 9, 6, 5, 3, 4, 2, 2, 7, 6, 4, 7, 7, 6, 6, 6, 6, 7, 5, 3, 9, 6, 5, 7, 5, 5, 6, 4, 1, 4, 3, 2, 3, 3, 3, 6, 3, 2, 10, 10, 10, 10, 10, 10, 5, 4, 3, 7, 6, 1, 8, 8, 5, 6, 6, 6, 8, 8, 8, 3, 3, 3, 3, 3, 3, 8, 6, 4, 8, 6, 5, 6, 5, 3, 2, 1, 1, 7, 6, 4, 10, 8, 8, 8, 6, 5, 4, 4, 4, 5, 5, 5, 9, 8, 6
 |8, 7, 6, 7, 6, 6, 9, 8, 8, 5, 3, 3, 10, 9, 7, 9, 9, 9, 1, 1, 1, 5, 5, 5, 8, 7, 5, 6, 6, 4, 9, 5, 2, 7, 5, 4, 8, 7, 6, 9, 5, 3, 6, 6, 5, 8, 7, 6, 8, 7, 6, 8, 7, 7, 8, 8, 7, 9, 9, 8, 4, 2, 2, 1, 1, 1, 8, 6, 4, 9, 8, 6, 4, 4, 4, 3, 2, 1, 3, 2, 2, 9, 9, 9, 6, 3, 3, 10, 9, 9, 10, 5, 4, 7, 6, 5, 6, 5, 1, 10, 8, 6, 6, 5, 4, 10, 9, 9, 9, 7, 4, 3, 3, 3, 9, 8, 7, 5, 3, 2, 5, 4, 2, 10, 6, 4, 1, 1, 1, 4, 4, 3, 3, 2, 1, 8, 6, 5, 8, 8, 7, 7, 7, 7, 9, 7, 4, 5, 3, 3|];